p cnf 75 211
-1 35 -2 51 0 
-3 51 0 
-1 35 52 0 
-4 18 21 22 23 25 29 38 40 41 42 44 45 48 53 0 
-5 -6 54 0 
-6 55 0 
-5 -7 54 0 
-8 54 0 
-9 19 28 56 0 
-5 -6 55 0 
-8 -10 54 0 
-11 26 31 36 -1 35 57 0 
-5 -12 13 14 15 17 20 24 27 32 49 50 -1 35 53 0 
-6 -13 12 14 15 17 20 24 27 32 49 50 53 0 
-6 -7 55 0 
-14 12 13 15 17 20 24 27 32 49 50 -9 19 28 53 0 
-6 -15 12 13 14 17 20 24 27 32 49 50 -1 35 53 0 
-16 39 53 0 
-9 19 28 56 0 
-4 18 21 22 23 25 29 38 40 41 42 44 45 48 53 0 
-7 -12 13 14 15 17 20 24 27 32 49 50 -1 35 53 0 
-5 -17 12 13 14 15 20 24 27 32 49 50 -1 35 53 0 
-18 4 21 22 23 25 29 38 40 41 42 44 45 48 57 0 
-3 58 0 
-3 59 0 
-19 9 28 -17 12 13 14 15 20 24 27 32 49 50 -1 35 57 0 
-17 12 13 14 15 20 24 27 32 49 50 -1 35 53 0 
-20 12 13 14 15 17 24 27 32 49 50 -1 35 54 0 
-13 12 14 15 17 20 24 27 32 49 50 -1 35 53 0 
-7 55 0 
-9 19 28 55 0 
-2 53 0 
-2 57 0 
-21 4 18 22 23 25 29 38 40 41 42 44 45 48 53 0 
-5 -13 12 14 15 17 20 24 27 32 49 50 -1 35 57 0 
-22 4 18 21 23 25 29 38 40 41 42 44 45 48 53 0 
-22 4 18 21 23 25 29 38 40 41 42 44 45 48 57 0 
-23 4 18 21 22 25 29 38 40 41 42 44 45 48 53 0 
-7 -24 12 13 14 15 17 20 27 32 49 50 -1 35 57 0 
-19 9 28 -17 12 13 14 15 20 24 27 32 49 50 57 0 
-7 -13 12 14 15 17 20 24 27 32 49 50 57 0 
-6 -15 12 13 14 17 20 24 27 32 49 50 57 0 
-7 -12 13 14 15 17 20 24 27 32 49 50 57 0 
-25 4 18 21 22 23 29 38 40 41 42 44 45 48 53 0 
-7 -12 13 14 15 17 20 24 27 32 49 50 53 0 
-7 -17 12 13 14 15 20 24 27 32 49 50 53 0 
-7 -13 12 14 15 17 20 24 27 32 49 50 53 0 
-5 -15 12 13 14 17 20 24 27 32 49 50 53 0 
-26 11 31 36 57 0 
-19 9 28 -14 12 13 15 17 20 24 27 32 49 50 -1 35 53 0 
-17 12 13 14 15 20 24 27 32 49 50 -1 35 57 0 
-27 12 13 14 15 17 20 24 32 49 50 -28 9 19 -1 35 53 0 
-7 -17 12 13 14 15 20 24 27 32 49 50 -1 35 53 0 
-29 4 18 21 22 23 25 38 40 41 42 44 45 48 53 0 
-29 4 18 21 22 23 25 38 40 41 42 44 45 48 57 0 
-30 -17 12 13 14 15 20 24 27 32 49 50 -1 35 57 0 
-31 11 26 36 -1 35 53 0 
-30 -32 12 13 14 15 17 20 24 27 49 50 -1 35 57 0 
-30 -1 35 54 0 
-2 -1 35 53 0 
-5 -30 -1 35 55 0 
-31 11 26 36 -2 -1 35 57 0 
-13 12 14 15 17 20 24 27 32 49 50 -1 35 57 0 
-33 43 -13 12 14 15 17 20 24 27 32 49 50 -34 53 0 
-24 12 13 14 15 17 20 27 32 49 50 -9 19 28 -1 35 53 0 
-6 -5 54 0 
-6 -9 19 28 57 0 
-7 -14 12 13 15 17 20 24 27 32 49 50 57 0 
-6 -28 9 19 57 0 
-14 12 13 15 17 20 24 27 32 49 50 -1 35 57 0 
-7 -13 12 14 15 17 20 24 27 32 49 50 -1 35 53 0 
-6 -14 12 13 15 17 20 24 27 32 49 50 -1 35 53 0 
-12 13 14 15 17 20 24 27 32 49 50 -1 35 57 0 
-13 12 14 15 17 20 24 27 32 49 50 57 0 
-15 12 13 14 17 20 24 27 32 49 50 -1 35 57 0 
-7 54 0 
-30 60 0 
-5 55 0 
-27 12 13 14 15 17 20 24 32 49 50 -9 19 28 57 0 
-6 -7 53 0 
-6 -7 54 0 
-5 57 0 
-32 12 13 14 15 17 20 24 27 49 50 -1 35 53 0 
-19 9 28 -32 12 13 14 15 17 20 24 27 49 50 -1 35 57 0 
-5 -27 12 13 14 15 17 20 24 32 49 50 -1 35 57 0 
-26 11 31 36 -1 35 53 0 
-35 1 -2 -36 11 26 31 58 0 
-35 1 -2 -36 11 26 31 51 0 
-7 -24 12 13 14 15 17 20 27 32 49 50 57 0 
-7 -9 19 28 61 0 
-24 12 13 14 15 17 20 27 32 49 50 53 0 
-14 12 13 15 17 20 24 27 32 49 50 -28 9 19 57 0 
-5 -15 12 13 14 17 20 24 27 32 49 50 -1 35 57 0 
-15 12 13 14 17 20 24 27 32 49 50 -1 35 53 0 
-15 12 13 14 17 20 24 27 32 49 50 57 0 
-7 55 0 
-6 54 0 
-37 12 13 14 15 17 20 24 27 32 49 50 55 0 
-5 -13 12 14 15 17 20 24 27 32 49 50 53 0 
-5 -17 12 13 14 15 20 24 27 32 49 50 53 0 
-17 12 13 14 15 20 24 27 32 49 50 57 0 
-7 -15 12 13 14 17 20 24 27 32 49 50 53 0 
-15 12 13 14 17 20 24 27 32 49 50 57 0 
-6 -5 55 0 
-19 9 28 -12 13 14 15 17 20 24 27 32 49 50 -1 35 57 0 
-12 13 14 15 17 20 24 27 32 49 50 -1 35 53 0 
-7 -19 9 28 54 0 
-7 -6 54 0 
-6 -15 12 13 14 17 20 24 27 32 49 50 53 0 
-5 -12 13 14 15 17 20 24 27 32 49 50 53 0 
-5 54 0 
-28 9 19 -1 35 62 0 
-28 9 19 -1 35 63 0 
-8 55 0 
-2 64 0 
-2 -35 1 65 0 
-2 -35 1 57 0 
-1 35 53 0 
-38 4 18 21 22 23 25 29 40 41 42 44 45 48 57 0 
-38 4 18 21 22 23 25 29 40 41 42 44 45 48 53 0 
-12 13 14 15 17 20 24 27 32 49 50 66 0 
-12 13 14 15 17 20 24 27 32 49 50 -9 19 28 67 0 
-4 18 21 22 23 25 29 38 40 41 42 44 45 48 53 0 
-4 18 21 22 23 25 29 38 40 41 42 44 45 48 57 0 
-11 26 31 36 53 0 
-1 35 51 0 
-1 35 58 0 
-1 35 68 0 
-7 -19 9 28 55 0 
-1 35 69 0 
-19 9 28 -1 35 53 0 
-7 -19 9 28 -1 35 57 0 
-6 -9 19 28 56 0 
-9 19 28 61 0 
-39 16 57 0 
-40 4 18 21 22 23 25 29 38 41 42 44 45 48 53 0 
-7 -13 12 14 15 17 20 24 27 32 49 50 -1 35 57 0 
-41 4 18 21 22 23 25 29 38 40 42 44 45 48 53 0 
-5 -15 12 13 14 17 20 24 27 32 49 50 57 0 
-5 -12 13 14 15 17 20 24 27 32 49 50 57 0 
-5 -13 12 14 15 17 20 24 27 32 49 50 57 0 
-42 4 18 21 22 23 25 29 38 40 41 44 45 48 53 0 
-26 11 31 36 -1 35 57 0 
-30 -43 33 -36 11 26 31 65 0 
-19 9 28 -15 12 13 14 17 20 24 27 32 49 50 -1 35 53 0 
-6 -13 12 14 15 17 20 24 27 32 49 50 -1 35 53 0 
-6 -17 12 13 14 15 20 24 27 32 49 50 -1 35 57 0 
-6 -13 12 14 15 17 20 24 27 32 49 50 57 0 
-5 -17 12 13 14 15 20 24 27 32 49 50 57 0 
-26 11 31 36 53 0 
-35 1 -2 53 0 
-35 1 53 0 
-44 4 18 21 22 23 25 29 38 40 41 42 45 48 57 0 
-44 4 18 21 22 23 25 29 38 40 41 42 45 48 53 0 
-6 -14 12 13 15 17 20 24 27 32 49 50 53 0 
-19 9 28 -13 12 14 15 17 20 24 27 32 49 50 53 0 
-14 12 13 15 17 20 24 27 32 49 50 57 0 
-1 35 59 0 
-7 -6 -17 12 13 14 15 20 24 27 32 49 50 57 0 
-9 19 28 53 0 
-14 12 13 15 17 20 24 27 32 49 50 53 0 
-28 9 19 53 0 
-13 12 14 15 17 20 24 27 32 49 50 53 0 
-5 -7 55 0 
-22 4 18 21 23 25 29 38 40 41 42 44 45 48 53 0 
-10 54 0 
-14 12 13 15 17 20 24 27 32 49 50 55 0 
-12 13 14 15 17 20 24 27 32 49 50 -9 19 28 70 0 
-12 13 14 15 17 20 24 27 32 49 50 -9 19 28 71 0 
-12 13 14 15 17 20 24 27 32 49 50 -9 19 28 72 0 
-45 4 18 21 22 23 25 29 38 40 41 42 44 48 53 0 
-6 -12 13 14 15 17 20 24 27 32 49 50 -1 35 53 0 
-35 1 -2 64 0 
-33 43 -2 -31 11 26 36 -46 57 0 
-2 -47 57 0 
-1 35 73 0 
-1 35 74 0 
-1 35 75 0 
-35 1 -36 11 26 31 68 0 
-48 4 18 21 22 23 25 29 38 40 41 42 44 45 53 0 
-22 4 18 21 23 25 29 38 40 41 42 44 45 48 53 0 
-6 -12 13 14 15 17 20 24 27 32 49 50 57 0 
-15 12 13 14 17 20 24 27 32 49 50 53 0 
-7 -17 12 13 14 15 20 24 27 32 49 50 -1 35 57 0 
-12 13 14 15 17 20 24 27 32 49 50 53 0 
-5 -49 12 13 14 15 17 20 24 27 32 50 55 0 
-49 12 13 14 15 17 20 24 27 32 50 54 0 
-33 43 -6 55 0 
-7 -17 12 13 14 15 20 24 27 32 49 50 57 0 
-19 9 28 -17 12 13 14 15 20 24 27 32 49 50 53 0 
-33 43 -13 12 14 15 17 20 24 27 32 49 50 53 0 
-6 -50 12 13 14 15 17 20 24 27 32 49 53 0 
-24 12 13 14 15 17 20 27 32 49 50 55 0 
-12 13 14 15 17 20 24 27 32 49 50 57 0 
-50 12 13 14 15 17 20 24 27 32 49 57 0 
-5 -19 9 28 54 0 
-10 55 0 
-33 43 -14 12 13 15 17 20 24 27 32 49 50 54 0 
-6 -32 12 13 14 15 17 20 24 27 49 50 54 0 
-7 -27 12 13 14 15 17 20 24 32 49 50 54 0 
-6 -24 12 13 14 15 17 20 27 32 49 50 54 0 
-7 -9 19 28 54 0 
-6 -19 9 28 54 0 
-6 -12 13 14 15 17 20 24 27 32 49 50 53 0 
-12 13 14 15 17 20 24 27 32 49 50 57 0 
-7 -9 19 28 57 0 
-19 9 28 -15 12 13 14 17 20 24 27 32 49 50 57 0 
-17 12 13 14 15 20 24 27 32 49 50 53 0 
-7 -15 12 13 14 17 20 24 27 32 49 50 57 0 
-2 -31 11 26 36 -47 57 0 
-9 19 28 57 0 
